SPARKNaCl/why3-cvc5/sparknacl-aes.adb_323_23_range_check_1.smt2
;; produced by cvc5.drv ;;
(set-logic ALL)
(set-info :smt-lib-version 2.6)
;;; generated by SMT-LIB2 driver
;;; SMT-LIB2 driver: bit-vectors, common part
;;; SMT-LIB2: integer arithmetic
;; "pow2"
(declare-fun pow2 (Int) Int)

(declare-const two_power_size_minus_one Int)

;; "two_power_size_minus_one_val"
(assert (= two_power_size_minus_one (pow2 (- 32 1))))

;; "min"
(define-fun min ((x Int) (y Int)) Int
  (ite (<= x y) x y))

;; "max"
(define-fun max ((x Int) (y Int)) Int
  (ite (<= x y) y x))

;; "Min_r"
(assert (forall ((x Int) (y Int)) (=> (<= y x) (= (min x y) y))))

;; "Max_l"
(assert (forall ((x Int) (y Int)) (=> (<= y x) (= (max x y) x))))

;; "Min_comm"
(assert (forall ((x Int) (y Int)) (= (min x y) (min y x))))

;; "Max_comm"
(assert (forall ((x Int) (y Int)) (= (max x y) (max y x))))

;; "Min_assoc"
(assert
  (forall ((x Int) (y Int) (z Int)) (= (min (min x y) z) (min x (min y z)))))

;; "Max_assoc"
(assert
  (forall ((x Int) (y Int) (z Int)) (= (max (max x y) z) (max x (max y z)))))

(declare-sort u32 0)

(declare-const x (_ BitVec 32))

;; "to_rep"
(declare-fun to_rep (u32) (_ BitVec 32))

;; "of_rep"
(declare-fun of_rep ((_ BitVec 32)) u32)

;; "inversion_axiom"
(assert
  (forall ((x1 u32)) (! (= (of_rep (to_rep x1)) x1) :pattern ((to_rep x1)) )))

;; "range_axiom"
(assert true)

;; "coerce_axiom"
(assert
  (forall ((x1 (_ BitVec 32)))
    (! (= (to_rep (of_rep x1)) x1) :pattern ((to_rep (of_rep x1))) )))

(declare-sort map1 0)

;; "has_bounds"
(declare-fun has_bounds (map1
  Int
  Int) Bool)

;; "get"
(declare-fun get (map1
  Int) u32)

(declare-const column map1)

;; "ada___sparknacl__aes__inv_sbox__backward_map__column__aggregate_def"
(declare-fun ada___sparknacl__aes__inv_sbox__backward_map__column__aggregate_def ((_ BitVec 32)
  (_ BitVec 32)
  (_ BitVec 32)
  (_ BitVec 32)
  (_ BitVec 32)
  (_ BitVec 32)
  (_ BitVec 32)
  (_ BitVec 32)) map1)

;; "def_axiom"
(assert
  (forall ((temp___263 (_ BitVec 32)) (temp___264 (_ BitVec 32)) (temp___265 (_ BitVec 32)) (temp___266 (_ BitVec 32)) (temp___267 (_ BitVec 32)) (temp___268 (_ BitVec 32)) (temp___269 (_ BitVec 32)) (temp___270 (_ BitVec 32)))
    (let ((temp___271 (ada___sparknacl__aes__inv_sbox__backward_map__column__aggregate_def
                        temp___263
                        temp___264
                        temp___265
                        temp___266
                        temp___267
                        temp___268
                        temp___269
                        temp___270)))
      (and
        (and
          (and
            (= (to_rep (get temp___271 0)) temp___263)
            (= (to_rep (get temp___271 1)) temp___264))
          (and
            (and
              (and
                (= (to_rep (get temp___271 2)) temp___265)
                (= (to_rep (get temp___271 3)) temp___266))
              (= (to_rep (get temp___271 4)) temp___267))
            (and
              (and
                (= (to_rep (get temp___271 5)) temp___268)
                (= (to_rep (get temp___271 6)) temp___269))
              (= (to_rep (get temp___271 7)) temp___270))))
        (=>
          (and
            (and (and (<= 0 0) (<= 0 7)) (and (<= 0 1) (<= 1 7)))
            (and
              (and
                (and (and (<= 0 2) (<= 2 7)) (and (<= 0 3) (<= 3 7)))
                (and (<= 0 4) (<= 4 7)))
              (and
                (and (and (<= 0 5) (<= 5 7)) (and (<= 0 6) (<= 6 7)))
                (and (<= 0 7) (<= 7 7)))))
          (has_bounds temp___271 0 7))))))

;; Goal "def'vc"
;; File "sparknacl-aes.adb", line 294, characters 0-0
(assert
  (not true))

(check-sat)
